\ Model dc_cost_opt_copy
\ LP format - for model browsing. Use MPS format to capture full model detail.
Minimize
 
Subject To
 init_T_IT: T_IT[0] = 40
 init_T_Rack: T_Rack[0] = 35
 init_T_cAisle: T_cAisle[0] = 18.63
 T_Rack_upd_0: - 3.906737989065578 T_IT[0] + 5.668458090553297 T_Rack[0]
   + T_Rack[1] - 2.761720101487718 T_cAisle[0] = 0
Bounds
 T_IT[0] free
 T_Rack[0] free
 T_Rack[1] >= 10
 T_cAisle[0] free
End
